db/data/79892926710248213627973172422670513216.z3.out
sat
-------------------
774.443415067
